networks/zoo_110_1783/zoo_110_1783-lower.txt
Number of groups: 63
Flow 46: {1 30 0} {30 32 0} {32 35 0} {35 49 0} {49 104 0} 
Flow 71: {2 5 0} {5 50 0} {50 13 0} {13 29 0} {29 28 0} {28 83 0} 
Flow 120: {3 30 0} {30 13 0} {13 50 0} {50 54 0} {54 109 0} 
Flow 148: {50 7 0} {7 40 0} {40 95 0} 
Flow 156: {4 32 0} {32 14 0} {14 48 0} {48 103 0} 
Flow 167: {5 8 0} {8 63 0} 
Flow 196: {5 9 0} {9 39 0} {39 94 0} 
Flow 231: {6 50 0} {50 25 0} {25 80 0} 
Flow 281: {7 50 0} {50 39 0} 
Flow 296: {9 40 0} {40 7 0} {7 62 0} 
Flow 344: {10 9 0} {9 50 0} {50 6 0} {6 61 0} 
Flow 377: {11 19 0} {19 20 0} 
Flow 393: {12 26 0} {26 13 0} {13 30 0} {30 47 0} {47 102 0} 
Flow 406: {19 11 0} {11 66 0} 
Flow 445: {13 52 0} {52 107 0} 
Flow 490: {15 29 0} {29 30 0} {30 1 0} {1 56 0} 
Flow 522: {16 29 0} {29 84 0} 
Flow 558: {17 36 0} {36 91 0} 
Flow 583: {18 20 0} {20 17 0} {17 72 0} 
Flow 648: {20 22 0} {22 77 0} 
Flow 683: {21 20 0} {20 9 0} {9 5 0} {5 2 0} {2 57 0} 
Flow 712: {22 20 0} 
Flow 729: {23 32 0} {32 51 0} {51 16 0} {16 71 0} 
Flow 741: {14 31 0} {31 86 0} 
Flow 775: {24 32 0} {32 30 0} {30 29 0} {29 15 0} {15 70 0} 
Flow 830: {25 50 0} {50 32 0} {32 46 0} {46 101 0} 
Flow 855: {26 27 0} {27 82 0} 
Flow 862: {26 54 0} {54 35 0} {35 90 0} 
Flow 883: {27 26 0} 
Flow 900: {28 29 0} {29 16 0} {16 51 0} {51 33 0} {33 88 0} 
Flow 950: {29 13 0} {13 44 0} {44 45 0} {45 100 0} 
Flow 980: {20 21 0} {21 76 0} 
Flow 1011: {30 14 0} {14 53 0} {53 108 0} 
Flow 1022: {31 14 0} {14 32 0} {32 87 0} 
Flow 1059: {32 34 0} {34 89 0} 
Flow 1084: {33 32 0} {32 4 0} {4 59 0} 
Flow 1125: {33 51 0} {51 106 0} 
Flow 1136: {34 54 0} {54 26 0} {26 12 0} {12 67 0} 
Flow 1180: {36 17 0} {17 50 0} {50 5 0} {5 60 0} 
Flow 1220: {37 44 0} {44 13 0} {13 41 0} {41 96 0} 
Flow 1241: {38 17 0} {17 44 0} {44 99 0} 
Flow 1274: {39 50 0} {50 17 0} {17 38 0} {38 93 0} 
Flow 1288: {39 9 0} {9 41 0} {41 55 0} {55 110 0} 
Flow 1290: {40 9 0} {9 64 0} 
Flow 1347: {42 44 0} 
Flow 1360: {43 44 0} {44 17 0} {17 20 0} {20 75 0} 
Flow 1406: {44 37 0} {37 92 0} 
Flow 1411: {44 42 0} {42 97 0} 
Flow 1412: {44 43 0} {43 98 0} 
Flow 1438: {45 44 0} 
Flow 1469: {46 32 0} {32 33 0} 
Flow 1485: {47 30 0} {30 3 0} {3 58 0} 
Flow 1492: {41 9 0} {9 10 0} {10 65 0} 
Flow 1540: {48 14 0} {14 69 0} 
Flow 1563: {35 54 0} 
Flow 1571: {49 35 0} {35 32 0} {32 23 0} {23 78 0} 
Flow 1661: {51 30 0} {30 85 0} 
Flow 1675: {51 32 0} {32 50 0} {50 105 0} 
Flow 1688: {52 13 0} {13 26 0} {26 81 0} 
Flow 1726: {53 14 0} {14 30 0} {30 51 0} 
Flow 1738: {54 50 0} {50 9 0} {9 20 0} {20 19 0} {19 74 0} 
Flow 1742: {54 34 0} {34 32 0} {32 24 0} {24 79 0} 
Flow 1764: {55 41 0} {41 13 0} {13 68 0} 
Time taken running everything: 9 seconds
