networks/zoo_110_1783/zoo_110_1783-lower.sol
<?xml version = "1.0" encoding="UTF-8" standalone="yes"?>
<CPLEXSolution version="1.2">
 <header
   problemName="networks/zoo_110_1783/zoo_110_1783-lower.lp"
   solutionName="incumbent"
   solutionIndex="-1"
   objectiveValue="54"
   solutionTypeValue="3"
   solutionTypeString="primal"
   solutionStatusValue="101"
   solutionStatusString="integer optimal solution"
   solutionMethodString="mip"
   primalFeasible="1"
   dualFeasible="1"
   MIPNodes="0"
   MIPIterations="0"
   writeLevel="3"/>
 <quality
   epInt="1.0000000000000001e-05"
   epRHS="9.9999999999999995e-07"
   maxIntInfeas="0"
   maxPrimalInfeas="0"
   maxX="1"
   maxSlack="1"/>
 <variables>
  <variable name="Y(1,2)" index="1" value="1"/>
  <variable name="Y(2,3)" index="111" value="1"/>
  <variable name="Y(3,4)" index="221" value="1"/>
  <variable name="Y(4,5)" index="331" value="1"/>
  <variable name="Y(5,6)" index="441" value="1"/>
  <variable name="Y(6,7)" index="551" value="1"/>
  <variable name="Y(7,8)" index="661" value="1"/>
  <variable name="Y(8,9)" index="771" value="1"/>
  <variable name="Y(9,10)" index="881" value="1"/>
  <variable name="Y(10,12)" index="992" value="1"/>
  <variable name="Y(11,13)" index="1102" value="1"/>
  <variable name="Y(12,14)" index="1212" value="1"/>
  <variable name="Y(13,15)" index="1322" value="1"/>
  <variable name="Y(14,16)" index="1432" value="1"/>
  <variable name="Y(15,17)" index="1542" value="1"/>
  <variable name="Y(16,19)" index="1653" value="1"/>
  <variable name="Y(17,20)" index="1763" value="1"/>
  <variable name="Y(18,21)" index="1873" value="1"/>
  <variable name="Y(19,22)" index="1983" value="1"/>
  <variable name="Y(20,23)" index="2093" value="1"/>
  <variable name="Y(21,24)" index="2203" value="1"/>
  <variable name="Y(22,25)" index="2313" value="1"/>
  <variable name="Y(23,26)" index="2423" value="1"/>
  <variable name="Y(24,27)" index="2533" value="1"/>
  <variable name="Y(25,28)" index="2643" value="1"/>
  <variable name="Y(26,29)" index="2753" value="1"/>
  <variable name="Y(27,30)" index="2863" value="1"/>
  <variable name="Y(28,31)" index="2973" value="1"/>
  <variable name="Y(29,32)" index="3083" value="1"/>
  <variable name="Y(30,33)" index="3193" value="1"/>
  <variable name="Y(31,34)" index="3303" value="1"/>
  <variable name="Y(32,35)" index="3413" value="1"/>
  <variable name="Y(33,36)" index="3523" value="1"/>
  <variable name="Y(34,37)" index="3633" value="1"/>
  <variable name="Y(35,38)" index="3743" value="1"/>
  <variable name="Y(36,39)" index="3853" value="1"/>
  <variable name="Y(37,40)" index="3963" value="1"/>
  <variable name="Y(38,41)" index="4073" value="1"/>
  <variable name="Y(39,42)" index="4183" value="1"/>
  <variable name="Y(40,43)" index="4293" value="1"/>
  <variable name="Y(41,44)" index="4403" value="1"/>
  <variable name="Y(42,45)" index="4513" value="1"/>
  <variable name="Y(43,46)" index="4623" value="1"/>
  <variable name="Y(44,47)" index="4733" value="1"/>
  <variable name="Y(45,48)" index="4843" value="1"/>
  <variable name="Y(46,49)" index="4953" value="1"/>
  <variable name="Y(47,50)" index="5063" value="1"/>
  <variable name="Y(48,51)" index="5173" value="1"/>
  <variable name="Y(49,52)" index="5283" value="1"/>
  <variable name="Y(50,53)" index="5393" value="1"/>
  <variable name="Y(51,54)" index="5503" value="1"/>
  <variable name="Y(52,55)" index="5613" value="1"/>
  <variable name="Y(53,1)" index="5668" value="1"/>
  <variable name="Y(406,11)" index="44155" value="1"/>
  <variable name="X(1,30,1)" index="194347" value="1"/>
  <variable name="X(1,56,53)" index="196182" value="1"/>
  <variable name="X(2,5,53)" index="197965" value="1"/>
  <variable name="X(2,57,1)" index="199696" value="1"/>
  <variable name="X(3,30,91)" index="201569" value="1"/>
  <variable name="X(3,58,2)" index="203263" value="1"/>
  <variable name="X(4,32,121)" index="205165" value="1"/>
  <variable name="X(4,59,3)" index="206830" value="1"/>
  <variable name="X(5,2,1)" index="208611" value="1"/>
  <variable name="X(5,8,7)" index="210400" value="1"/>
  <variable name="X(5,9,57)" index="212233" value="1"/>
  <variable name="X(5,50,53)" index="214012" value="1"/>
  <variable name="X(5,60,4)" index="215746" value="1"/>
  <variable name="X(6,50,213)" index="217738" value="1"/>
  <variable name="X(6,61,5)" index="219313" value="1"/>
  <variable name="X(7,40,148)" index="221239" value="1"/>
  <variable name="X(7,50,260)" index="223134" value="1"/>
  <variable name="X(7,62,6)" index="224663" value="1"/>
  <variable name="X(8,63,7)" index="226447" value="1"/>
  <variable name="X(9,5,291)" index="228514" value="1"/>
  <variable name="X(9,10,9)" index="230015" value="1"/>
  <variable name="X(9,20,16)" index="231805" value="1"/>
  <variable name="X(9,39,77)" index="233649" value="1"/>
  <variable name="X(9,40,37)" index="235392" value="1"/>
  <variable name="X(9,41,79)" index="237217" value="1"/>
  <variable name="X(9,50,293)" index="239214" value="1"/>
  <variable name="X(9,64,8)" index="240712" value="1"/>
  <variable name="X(10,9,341)" index="242828" value="1"/>
  <variable name="X(10,65,9)" index="244279" value="1"/>
  <variable name="X(11,19,366)" index="246419" value="1"/>
  <variable name="X(11,66,406)" index="248242" value="1"/>
  <variable name="X(12,26,390)" index="250009" value="1"/>
  <variable name="X(12,67,10)" index="251412" value="1"/>
  <variable name="X(13,26,10)" index="253195" value="1"/>
  <variable name="X(13,29,62)" index="255030" value="1"/>
  <variable name="X(13,30,53)" index="256804" value="1"/>
  <variable name="X(13,41,8)" index="258542" value="1"/>
  <variable name="X(13,44,15)" index="260332" value="1"/>
  <variable name="X(13,50,1)" index="262101" value="1"/>
  <variable name="X(13,52,49)" index="263932" value="1"/>
  <variable name="X(13,68,11)" index="265677" value="1"/>
  <variable name="X(14,30,449)" index="267898" value="1"/>
  <variable name="X(14,31,28)" index="269260" value="1"/>
  <variable name="X(14,32,450)" index="271465" value="1"/>
  <variable name="X(14,48,45)" index="272843" value="1"/>
  <variable name="X(14,53,50)" index="274631" value="1"/>
  <variable name="X(14,69,12)" index="276376" value="1"/>
  <variable name="X(15,29,490)" index="278637" value="1"/>
  <variable name="X(15,70,13)" index="279943" value="1"/>
  <variable name="X(16,29,515)" index="282228" value="1"/>
  <variable name="X(16,51,504)" index="284000" value="1"/>
  <variable name="X(16,71,14)" index="285293" value="1"/>
  <variable name="X(17,20,546)" index="287608" value="1"/>
  <variable name="X(17,36,33)" index="288878" value="1"/>
  <variable name="X(17,38,35)" index="290663" value="1"/>
  <variable name="X(17,44,384)" index="292795" value="1"/>
  <variable name="X(17,50,534)" index="294728" value="1"/>
  <variable name="X(17,72,15)" index="295992" value="1"/>
  <variable name="X(18,20,575)" index="298335" value="1"/>
  <variable name="X(19,11,406)" index="299949" value="1"/>
  <variable name="X(19,20,366)" index="301692" value="1"/>
  <variable name="X(19,74,16)" index="303125" value="1"/>
  <variable name="X(20,9,366)" index="305258" value="1"/>
  <variable name="X(20,17,373)" index="307048" value="1"/>
  <variable name="X(20,19,16)" index="308474" value="1"/>
  <variable name="X(20,21,18)" index="310259" value="1"/>
  <variable name="X(20,22,19)" index="312043" value="1"/>
  <variable name="X(20,75,17)" index="313824" value="1"/>
  <variable name="X(21,20,682)" index="316272" value="1"/>
  <variable name="X(21,76,18)" index="317391" value="1"/>
  <variable name="X(22,20,707)" index="319863" value="1"/>
  <variable name="X(22,77,19)" index="320958" value="1"/>
  <variable name="X(23,32,717)" index="323439" value="1"/>
  <variable name="X(23,78,20)" index="324525" value="1"/>
  <variable name="X(24,32,764)" index="327052" value="1"/>
  <variable name="X(24,79,21)" index="328092" value="1"/>
  <variable name="X(25,50,811)" index="330665" value="1"/>
  <variable name="X(25,80,22)" index="331659" value="1"/>
  <variable name="X(26,12,10)" index="333430" value="1"/>
  <variable name="X(26,13,390)" index="335593" value="1"/>
  <variable name="X(26,27,24)" index="337010" value="1"/>
  <variable name="X(26,54,862)" index="339631" value="1"/>
  <variable name="X(26,81,23)" index="340575" value="1"/>
  <variable name="X(27,26,881)" index="343216" value="1"/>
  <variable name="X(27,82,24)" index="344142" value="1"/>
  <variable name="X(28,29,884)" index="346785" value="1"/>
  <variable name="X(28,83,25)" index="347709" value="1"/>
  <variable name="X(29,13,491)" index="349958" value="1"/>
  <variable name="X(29,15,13)" index="351263" value="1"/>
  <variable name="X(29,16,14)" index="353047" value="1"/>
  <variable name="X(29,28,25)" index="354841" value="1"/>
  <variable name="X(29,30,490)" index="357089" value="1"/>
  <variable name="X(29,84,26)" index="358408" value="1"/>
  <variable name="X(30,1,53)" index="360218" value="1"/>
  <variable name="X(30,3,2)" index="361950" value="1"/>
  <variable name="X(30,13,1)" index="363732" value="1"/>
  <variable name="X(30,14,12)" index="365526" value="1"/>
  <variable name="X(30,29,13)" index="367310" value="1"/>
  <variable name="X(30,32,3)" index="369083" value="1"/>
  <variable name="X(30,47,44)" index="370907" value="1"/>
  <variable name="X(30,51,30)" index="372676" value="1"/>
  <variable name="X(30,85,27)" index="374456" value="1"/>
  <variable name="X(31,14,1014)" index="377226" value="1"/>
  <variable name="X(31,86,28)" index="378023" value="1"/>
  <variable name="X(32,4,3)" index="379781" value="1"/>
  <variable name="X(32,14,61)" index="381622" value="1"/>
  <variable name="X(32,23,20)" index="383364" value="1"/>
  <variable name="X(32,24,21)" index="385148" value="1"/>
  <variable name="X(32,30,121)" index="387031" value="1"/>
  <variable name="X(32,33,75)" index="388768" value="1"/>
  <variable name="X(32,34,31)" index="390507" value="1"/>
  <variable name="X(32,35,32)" index="392291" value="1"/>
  <variable name="X(32,46,43)" index="394085" value="1"/>
  <variable name="X(32,50,122)" index="395947" value="1"/>
  <variable name="X(32,51,89)" index="397697" value="1"/>
  <variable name="X(32,87,29)" index="399420" value="1"/>
  <variable name="X(33,32,1081)" index="402255" value="1"/>
  <variable name="X(33,51,1094)" index="404051" value="1"/>
  <variable name="X(33,88,30)" index="404770" value="1"/>
  <variable name="X(34,32,1129)" index="407652" value="1"/>
  <variable name="X(34,54,160)" index="408466" value="1"/>
  <variable name="X(34,89,31)" index="410120" value="1"/>
  <variable name="X(35,32,1165)" index="413037" value="1"/>
  <variable name="X(35,49,46)" index="413701" value="1"/>
  <variable name="X(35,54,1563)" index="417001" value="1"/>
  <variable name="X(35,90,32)" index="417253" value="1"/>
  <variable name="X(36,17,1178)" index="420182" value="1"/>
  <variable name="X(36,91,33)" index="420820" value="1"/>
  <variable name="X(37,44,1204)" index="423774" value="1"/>
  <variable name="X(37,92,34)" index="424387" value="1"/>
  <variable name="X(38,17,1226)" index="427362" value="1"/>
  <variable name="X(38,93,35)" index="427954" value="1"/>
  <variable name="X(39,9,1246)" index="430948" value="1"/>
  <variable name="X(39,50,1245)" index="432730" value="1"/>
  <variable name="X(39,94,36)" index="433304" value="1"/>
  <variable name="X(40,7,296)" index="435347" value="1"/>
  <variable name="X(40,9,1290)" index="438124" value="1"/>
  <variable name="X(40,95,37)" index="438654" value="1"/>
  <variable name="X(41,9,8)" index="440408" value="1"/>
  <variable name="X(41,13,290)" index="442473" value="1"/>
  <variable name="X(41,55,52)" index="444018" value="1"/>
  <variable name="X(41,96,38)" index="445787" value="1"/>
  <variable name="X(42,44,1347)" index="448879" value="1"/>
  <variable name="X(42,97,39)" index="449354" value="1"/>
  <variable name="X(43,44,1351)" index="452449" value="1"/>
  <variable name="X(43,98,40)" index="452921" value="1"/>
  <variable name="X(44,13,1204)" index="455868" value="1"/>
  <variable name="X(44,17,15)" index="456462" value="1"/>
  <variable name="X(44,37,34)" index="458264" value="1"/>
  <variable name="X(44,42,39)" index="460052" value="1"/>
  <variable name="X(44,43,40)" index="461836" value="1"/>
  <variable name="X(44,45,42)" index="463621" value="1"/>
  <variable name="X(44,99,41)" index="465403" value="1"/>
  <variable name="X(45,44,1422)" index="468567" value="1"/>
  <variable name="X(45,100,42)" index="468970" value="1"/>
  <variable name="X(46,32,1448)" index="472159" value="1"/>
  <variable name="X(46,101,43)" index="472537" value="1"/>
  <variable name="X(47,30,1483)" index="475760" value="1"/>
  <variable name="X(47,102,44)" index="476104" value="1"/>
  <variable name="X(48,14,1535)" index="479378" value="1"/>
  <variable name="X(48,103,45)" index="479671" value="1"/>
  <variable name="X(49,35,1558)" index="482967" value="1"/>
  <variable name="X(49,104,46)" index="483238" value="1"/>
  <variable name="X(50,5,1)" index="484976" value="1"/>
  <variable name="X(50,6,5)" index="486763" value="1"/>
  <variable name="X(50,7,6)" index="488547" value="1"/>
  <variable name="X(50,9,126)" index="490450" value="1"/>
  <variable name="X(50,13,53)" index="492160" value="1"/>
  <variable name="X(50,17,64)" index="493954" value="1"/>
  <variable name="X(50,25,22)" index="495695" value="1"/>
  <variable name="X(50,32,61)" index="497517" value="1"/>
  <variable name="X(50,39,36)" index="499275" value="1"/>
  <variable name="X(50,54,51)" index="501073" value="1"/>
  <variable name="X(50,105,47)" index="502852" value="1"/>
  <variable name="X(51,16,132)" index="504720" value="1"/>
  <variable name="X(51,30,510)" index="506881" value="1"/>
  <variable name="X(51,32,511)" index="508665" value="1"/>
  <variable name="X(51,33,30)" index="509967" value="1"/>
  <variable name="X(51,106,48)" index="511768" value="1"/>
  <variable name="X(52,13,1677)" index="515180" value="1"/>
  <variable name="X(52,107,49)" index="515335" value="1"/>
  <variable name="X(53,14,1701)" index="518770" value="1"/>
  <variable name="X(53,108,50)" index="518902" value="1"/>
  <variable name="X(54,26,1136)" index="521771" value="1"/>
  <variable name="X(54,34,1735)" index="524153" value="1"/>
  <variable name="X(54,35,862)" index="525063" value="1"/>
  <variable name="X(54,50,1729)" index="527713" value="1"/>
  <variable name="X(54,109,51)" index="527818" value="1"/>
  <variable name="X(55,41,1759)" index="531309" value="1"/>
  <variable name="X(55,110,52)" index="531385" value="1"/>
 </variables>
</CPLEXSolution>
